Route #1: 28 15
Route #2: 7 20
Route #3: 51 10 61 29 43 8
Route #4: 52 36 16 37 22 44 2 38
Route #5: 50 58 17 33 26 55 59 34 31
Route #6: 57 32 6 40
Route #7: 53 12 48 56 14 13 19 18 30 60
Route #8: 5 25 11 49 35 4 21 41 23 27 54
Route #9: 46 45 47 24 42
Route #10: 1 9 3 39
cost: 1469.6989495743844
